p cnf 176 342
1 2 3 4 5 6 7 8 9 10 11 0
12 13 14 15 16 17 18 19 20 21 22 0
32 33 23 24 25 26 27 28 29 30 31 0
34 35 36 37 38 39 40 41 42 43 44 0
45 46 47 48 49 50 51 52 53 54 55 0
64 65 66 56 57 58 59 60 61 62 63 0
67 68 69 70 71 72 73 74 75 76 77 0
78 79 80 81 82 83 84 85 86 87 88 0
96 97 98 99 89 90 91 92 93 94 95 0
100 101 102 103 104 105 106 107 108 109 110 0
111 112 113 114 115 116 117 118 119 120 121 0
128 129 130 131 132 122 123 124 125 126 127 0
-12 -1 0
-23 -1 0
-133 -1 0
-23 -12 0
-133 -12 0
-23 -133 0
-45 -34 0
-56 -34 0
-134 -34 0
-56 -45 0
-134 -45 0
-56 -134 0
-78 -67 0
-67 -89 0
-135 -67 0
-78 -89 0
-135 -78 0
-135 -89 0
-111 -100 0
-100 -122 0
-136 -100 0
-111 -122 0
-136 -111 0
-136 -122 0
133 134 0
133 135 0
136 133 0
134 135 0
136 134 0
136 135 0
-13 -2 0
-24 -2 0
-2 -137 0
-24 -13 0
-13 -137 0
-24 -137 0
-46 -35 0
-35 -57 0
-35 -138 0
-46 -57 0
-46 -138 0
-138 -57 0
-79 -68 0
-68 -90 0
-68 -139 0
-79 -90 0
-79 -139 0
-139 -90 0
-112 -101 0
-101 -123 0
-101 -140 0
-112 -123 0
-112 -140 0
-140 -123 0
137 138 0
137 139 0
137 140 0
138 139 0
138 140 0
139 140 0
-14 -3 0
-3 -25 0
-141 -3 0
-14 -25 0
-14 -141 0
-141 -25 0
-47 -36 0
-36 -58 0
-142 -36 0
-47 -58 0
-47 -142 0
-142 -58 0
-80 -69 0
-69 -91 0
-143 -69 0
-80 -91 0
-80 -143 0
-143 -91 0
-102 -113 0
-102 -124 0
-144 -102 0
-124 -113 0
-144 -113 0
-144 -124 0
141 142 0
141 143 0
144 141 0
142 143 0
144 142 0
144 143 0
-15 -4 0
-4 -26 0
-4 -145 0
-15 -26 0
-15 -145 0
-26 -145 0
-48 -37 0
-37 -59 0
-37 -146 0
-48 -59 0
-48 -146 0
-59 -146 0
-70 -81 0
-70 -92 0
-70 -147 0
-92 -81 0
-147 -81 0
-92 -147 0
-103 -114 0
-103 -125 0
-103 -148 0
-125 -114 0
-148 -114 0
-125 -148 0
145 146 0
145 147 0
145 148 0
146 147 0
146 148 0
147 148 0
-16 -5 0
-5 -27 0
-5 -149 0
-16 -27 0
-16 -149 0
-149 -27 0
-38 -49 0
-38 -60 0
-38 -150 0
-60 -49 0
-150 -49 0
-150 -60 0
-71 -82 0
-71 -93 0
-71 -151 0
-93 -82 0
-151 -82 0
-151 -93 0
-104 -115 0
-104 -126 0
-104 -152 0
-126 -115 0
-152 -115 0
-152 -126 0
149 150 0
149 151 0
152 149 0
150 151 0
152 150 0
152 151 0
-6 -17 0
-6 -28 0
-6 -153 0
-28 -17 0
-153 -17 0
-28 -153 0
-39 -50 0
-39 -61 0
-39 -154 0
-61 -50 0
-154 -50 0
-61 -154 0
-72 -83 0
-72 -94 0
-72 -155 0
-94 -83 0
-155 -83 0
-94 -155 0
-116 -105 0
-127 -105 0
-156 -105 0
-127 -116 0
-156 -116 0
-127 -156 0
153 154 0
153 155 0
153 156 0
154 155 0
154 156 0
155 156 0
-7 -18 0
-7 -29 0
-7 -157 0
-29 -18 0
-157 -18 0
-29 -157 0
-40 -51 0
-40 -62 0
-40 -158 0
-62 -51 0
-158 -51 0
-62 -158 0
-84 -73 0
-95 -73 0
-159 -73 0
-95 -84 0
-159 -84 0
-95 -159 0
-117 -106 0
-128 -106 0
-160 -106 0
-128 -117 0
-160 -117 0
-128 -160 0
157 158 0
157 159 0
160 157 0
158 159 0
160 158 0
160 159 0
-8 -19 0
-8 -30 0
-8 -161 0
-30 -19 0
-19 -161 0
-30 -161 0
-52 -41 0
-63 -41 0
-162 -41 0
-63 -52 0
-52 -162 0
-63 -162 0
-85 -74 0
-96 -74 0
-163 -74 0
-96 -85 0
-85 -163 0
-96 -163 0
-118 -107 0
-107 -129 0
-164 -107 0
-118 -129 0
-118 -164 0
-164 -129 0
161 162 0
161 163 0
161 164 0
162 163 0
162 164 0
163 164 0
-20 -9 0
-31 -9 0
-165 -9 0
-31 -20 0
-165 -20 0
-31 -165 0
-53 -42 0
-64 -42 0
-166 -42 0
-64 -53 0
-166 -53 0
-64 -166 0
-86 -75 0
-75 -97 0
-167 -75 0
-86 -97 0
-167 -86 0
-167 -97 0
-119 -108 0
-108 -130 0
-168 -108 0
-119 -130 0
-168 -119 0
-168 -130 0
165 166 0
165 167 0
168 165 0
166 167 0
168 166 0
168 167 0
-21 -10 0
-32 -10 0
-10 -169 0
-32 -21 0
-21 -169 0
-32 -169 0
-54 -43 0
-43 -65 0
-43 -170 0
-54 -65 0
-54 -170 0
-170 -65 0
-87 -76 0
-76 -98 0
-76 -171 0
-87 -98 0
-87 -171 0
-171 -98 0
-120 -109 0
-109 -131 0
-109 -172 0
-120 -131 0
-120 -172 0
-172 -131 0
169 170 0
169 171 0
169 172 0
170 171 0
170 172 0
171 172 0
-22 -11 0
-11 -33 0
-173 -11 0
-22 -33 0
-22 -173 0
-173 -33 0
-55 -44 0
-44 -66 0
-174 -44 0
-55 -66 0
-55 -174 0
-174 -66 0
-88 -77 0
-77 -99 0
-175 -77 0
-88 -99 0
-88 -175 0
-175 -99 0
-110 -121 0
-110 -132 0
-176 -110 0
-132 -121 0
-176 -121 0
-176 -132 0
173 174 0
173 175 0
176 173 0
174 175 0
176 174 0
176 175 0
